<?xml version="1.0" encoding="UTF-8"?><osil xmlns="os.optimizationservices.org"   xmlns:xsi="http://www.w3.org/2001/XMLSchema-instance" xsi:schemaLocation="os.optimizationservices.org http://www.optimizationservices.org/schemas/2.0/OSiL.xsd" ><instanceHeader><name>q_20_0_100_2</name></instanceHeader><instanceData><variables numberOfVariables="20"><var name="x1" ub="1"/><var name="x2" ub="1"/><var name="x3" ub="1"/><var name="x4" ub="1"/><var name="x5" ub="1"/><var name="x6" ub="1"/><var name="x7" ub="1"/><var name="x8" ub="1"/><var name="x9" ub="1"/><var name="x10" ub="1"/><var name="x11" ub="1"/><var name="x12" ub="1"/><var name="x13" ub="1"/><var name="x14" ub="1"/><var name="x15" ub="1"/><var name="x16" ub="1"/><var name="x17" ub="1"/><var name="x18" ub="1"/><var name="x19" ub="1"/><var name="x20" ub="1"/></variables><objectives numberOfObjectives="1"><obj maxOrMin="min" name="defObj_x21" numberOfObjCoef="20"><coef idx="0">-.3182</coef><coef idx="1">.9186</coef><coef idx="2">-.3466</coef><coef idx="3">.4085</coef><coef idx="4">.5809</coef><coef idx="5">.4471</coef><coef idx="6">.4579</coef><coef idx="7">-.1092</coef><coef idx="8">-.2364</coef><coef idx="9">.8444</coef><coef idx="10">.4968</coef><coef idx="11">-.1465</coef><coef idx="12">-.5651</coef><coef idx="13">.4588</coef><coef idx="14">.5938</coef><coef idx="15">.1168</coef><coef idx="16">.7708</coef><coef idx="17">-.2337</coef><coef idx="18">-.5184</coef><coef idx="19">-.3698</coef></obj></objectives><quadraticCoefficients  numberOfQuadraticTerms="210" ><qTerm  idx="-1"  idxOne="0"  idxTwo="0"  coef="-.2835"/><qTerm  idx="-1"  idxOne="0"  idxTwo="1"  coef=".8198"/><qTerm  idx="-1"  idxOne="0"  idxTwo="2"  coef="8.74e-2"/><qTerm  idx="-1"  idxOne="0"  idxTwo="3"  coef=".9194"/><qTerm  idx="-1"  idxOne="0"  idxTwo="4"  coef=".8589"/><qTerm  idx="-1"  idxOne="0"  idxTwo="5"  coef=".2666"/><qTerm  idx="-1"  idxOne="0"  idxTwo="6"  coef="-.4088"/><qTerm  idx="-1"  idxOne="0"  idxTwo="7"  coef="-.6505"/><qTerm  idx="-1"  idxOne="0"  idxTwo="8"  coef=".6852"/><qTerm  idx="-1"  idxOne="0"  idxTwo="9"  coef=".2372"/><qTerm  idx="-1"  idxOne="0"  idxTwo="10"  coef=".4118"/><qTerm  idx="-1"  idxOne="0"  idxTwo="11"  coef="-.5151"/><qTerm  idx="-1"  idxOne="0"  idxTwo="12"  coef=".5959"/><qTerm  idx="-1"  idxOne="0"  idxTwo="13"  coef="-.218"/><qTerm  idx="-1"  idxOne="0"  idxTwo="14"  coef="-.7801"/><qTerm  idx="-1"  idxOne="0"  idxTwo="15"  coef=".5074"/><qTerm  idx="-1"  idxOne="0"  idxTwo="16"  coef="-.9404"/><qTerm  idx="-1"  idxOne="0"  idxTwo="17"  coef=".4013"/><qTerm  idx="-1"  idxOne="0"  idxTwo="18"  coef="5.04e-2"/><qTerm  idx="-1"  idxOne="0"  idxTwo="19"  coef=".5051"/><qTerm  idx="-1"  idxOne="1"  idxTwo="1"  coef=".2954"/><qTerm  idx="-1"  idxOne="1"  idxTwo="2"  coef=".7422"/><qTerm  idx="-1"  idxOne="1"  idxTwo="3"  coef=".6614"/><qTerm  idx="-1"  idxOne="1"  idxTwo="4"  coef=".9144"/><qTerm  idx="-1"  idxOne="1"  idxTwo="5"  coef="-.5555"/><qTerm  idx="-1"  idxOne="1"  idxTwo="6"  coef=".159"/><qTerm  idx="-1"  idxOne="1"  idxTwo="7"  coef=".9815"/><qTerm  idx="-1"  idxOne="1"  idxTwo="8"  coef=".6799"/><qTerm  idx="-1"  idxOne="1"  idxTwo="9"  coef="-.6504"/><qTerm  idx="-1"  idxOne="1"  idxTwo="10"  coef=".4191"/><qTerm  idx="-1"  idxOne="1"  idxTwo="11"  coef="-.3969"/><qTerm  idx="-1"  idxOne="1"  idxTwo="12"  coef="-.9499"/><qTerm  idx="-1"  idxOne="1"  idxTwo="13"  coef=".8335"/><qTerm  idx="-1"  idxOne="1"  idxTwo="14"  coef=".3776"/><qTerm  idx="-1"  idxOne="1"  idxTwo="15"  coef=".5135"/><qTerm  idx="-1"  idxOne="1"  idxTwo="16"  coef=".8655"/><qTerm  idx="-1"  idxOne="1"  idxTwo="17"  coef="-.89"/><qTerm  idx="-1"  idxOne="1"  idxTwo="18"  coef="-2.1e-3"/><qTerm  idx="-1"  idxOne="1"  idxTwo="19"  coef="-.881"/><qTerm  idx="-1"  idxOne="2"  idxTwo="2"  coef="-.6563"/><qTerm  idx="-1"  idxOne="2"  idxTwo="3"  coef=".3767"/><qTerm  idx="-1"  idxOne="2"  idxTwo="4"  coef="-.3868"/><qTerm  idx="-1"  idxOne="2"  idxTwo="5"  coef=".4704"/><qTerm  idx="-1"  idxOne="2"  idxTwo="6"  coef=".5043"/><qTerm  idx="-1"  idxOne="2"  idxTwo="7"  coef="-.2086"/><qTerm  idx="-1"  idxOne="2"  idxTwo="8"  coef="-.8244"/><qTerm  idx="-1"  idxOne="2"  idxTwo="9"  coef="-.9021"/><qTerm  idx="-1"  idxOne="2"  idxTwo="10"  coef=".5587"/><qTerm  idx="-1"  idxOne="2"  idxTwo="11"  coef=".3616"/><qTerm  idx="-1"  idxOne="2"  idxTwo="12"  coef="-.3769"/><qTerm  idx="-1"  idxOne="2"  idxTwo="13"  coef="4.55e-2"/><qTerm  idx="-1"  idxOne="2"  idxTwo="14"  coef="1.16e-2"/><qTerm  idx="-1"  idxOne="2"  idxTwo="15"  coef="-.1229"/><qTerm  idx="-1"  idxOne="2"  idxTwo="16"  coef=".1753"/><qTerm  idx="-1"  idxOne="2"  idxTwo="17"  coef="-.4053"/><qTerm  idx="-1"  idxOne="2"  idxTwo="18"  coef="-.4102"/><qTerm  idx="-1"  idxOne="2"  idxTwo="19"  coef="-.8524"/><qTerm  idx="-1"  idxOne="3"  idxTwo="3"  coef=".9499"/><qTerm  idx="-1"  idxOne="3"  idxTwo="4"  coef=".4563"/><qTerm  idx="-1"  idxOne="3"  idxTwo="5"  coef=".5162"/><qTerm  idx="-1"  idxOne="3"  idxTwo="6"  coef="-.3816"/><qTerm  idx="-1"  idxOne="3"  idxTwo="7"  coef="-.507"/><qTerm  idx="-1"  idxOne="3"  idxTwo="8"  coef="-.4862"/><qTerm  idx="-1"  idxOne="3"  idxTwo="9"  coef=".2361"/><qTerm  idx="-1"  idxOne="3"  idxTwo="10"  coef=".8756"/><qTerm  idx="-1"  idxOne="3"  idxTwo="11"  coef=".9844"/><qTerm  idx="-1"  idxOne="3"  idxTwo="12"  coef="-.5504"/><qTerm  idx="-1"  idxOne="3"  idxTwo="13"  coef=".8946"/><qTerm  idx="-1"  idxOne="3"  idxTwo="14"  coef=".6956"/><qTerm  idx="-1"  idxOne="3"  idxTwo="15"  coef=".4003"/><qTerm  idx="-1"  idxOne="3"  idxTwo="16"  coef=".1089"/><qTerm  idx="-1"  idxOne="3"  idxTwo="17"  coef="-.1168"/><qTerm  idx="-1"  idxOne="3"  idxTwo="18"  coef="-.5016"/><qTerm  idx="-1"  idxOne="3"  idxTwo="19"  coef=".7953"/><qTerm  idx="-1"  idxOne="4"  idxTwo="4"  coef="-.7085"/><qTerm  idx="-1"  idxOne="4"  idxTwo="5"  coef="-.1308"/><qTerm  idx="-1"  idxOne="4"  idxTwo="6"  coef="-8.52e-2"/><qTerm  idx="-1"  idxOne="4"  idxTwo="7"  coef="-.3812"/><qTerm  idx="-1"  idxOne="4"  idxTwo="8"  coef="-3.82e-2"/><qTerm  idx="-1"  idxOne="4"  idxTwo="9"  coef=".3795"/><qTerm  idx="-1"  idxOne="4"  idxTwo="10"  coef=".6216"/><qTerm  idx="-1"  idxOne="4"  idxTwo="11"  coef="-.2157"/><qTerm  idx="-1"  idxOne="4"  idxTwo="12"  coef="-.4137"/><qTerm  idx="-1"  idxOne="4"  idxTwo="13"  coef=".152"/><qTerm  idx="-1"  idxOne="4"  idxTwo="14"  coef=".4507"/><qTerm  idx="-1"  idxOne="4"  idxTwo="15"  coef="-.7145"/><qTerm  idx="-1"  idxOne="4"  idxTwo="16"  coef="-.3329"/><qTerm  idx="-1"  idxOne="4"  idxTwo="17"  coef="-.6792"/><qTerm  idx="-1"  idxOne="4"  idxTwo="18"  coef="6.92e-2"/><qTerm  idx="-1"  idxOne="4"  idxTwo="19"  coef=".4467"/><qTerm  idx="-1"  idxOne="5"  idxTwo="5"  coef="-.5436"/><qTerm  idx="-1"  idxOne="5"  idxTwo="6"  coef="-.602"/><qTerm  idx="-1"  idxOne="5"  idxTwo="7"  coef=".9452"/><qTerm  idx="-1"  idxOne="5"  idxTwo="8"  coef=".9871"/><qTerm  idx="-1"  idxOne="5"  idxTwo="9"  coef="-.8361"/><qTerm  idx="-1"  idxOne="5"  idxTwo="10"  coef="-.4982"/><qTerm  idx="-1"  idxOne="5"  idxTwo="11"  coef="-.5683"/><qTerm  idx="-1"  idxOne="5"  idxTwo="12"  coef="-.6084"/><qTerm  idx="-1"  idxOne="5"  idxTwo="13"  coef=".7005"/><qTerm  idx="-1"  idxOne="5"  idxTwo="14"  coef="-.9106"/><qTerm  idx="-1"  idxOne="5"  idxTwo="15"  coef=".7278"/><qTerm  idx="-1"  idxOne="5"  idxTwo="16"  coef="-.8657"/><qTerm  idx="-1"  idxOne="5"  idxTwo="17"  coef="-.1454"/><qTerm  idx="-1"  idxOne="5"  idxTwo="18"  coef="-.7254"/><qTerm  idx="-1"  idxOne="5"  idxTwo="19"  coef="-.7618"/><qTerm  idx="-1"  idxOne="6"  idxTwo="6"  coef="-.3881"/><qTerm  idx="-1"  idxOne="6"  idxTwo="7"  coef=".2265"/><qTerm  idx="-1"  idxOne="6"  idxTwo="8"  coef=".3273"/><qTerm  idx="-1"  idxOne="6"  idxTwo="9"  coef=".7918"/><qTerm  idx="-1"  idxOne="6"  idxTwo="10"  coef=".5074"/><qTerm  idx="-1"  idxOne="6"  idxTwo="11"  coef=".2597"/><qTerm  idx="-1"  idxOne="6"  idxTwo="12"  coef="-.558"/><qTerm  idx="-1"  idxOne="6"  idxTwo="13"  coef="-3.23e-2"/><qTerm  idx="-1"  idxOne="6"  idxTwo="14"  coef=".23"/><qTerm  idx="-1"  idxOne="6"  idxTwo="15"  coef=".9753"/><qTerm  idx="-1"  idxOne="6"  idxTwo="16"  coef=".1184"/><qTerm  idx="-1"  idxOne="6"  idxTwo="17"  coef="-.2582"/><qTerm  idx="-1"  idxOne="6"  idxTwo="18"  coef="-.3248"/><qTerm  idx="-1"  idxOne="6"  idxTwo="19"  coef=".4909"/><qTerm  idx="-1"  idxOne="7"  idxTwo="7"  coef=".1395"/><qTerm  idx="-1"  idxOne="7"  idxTwo="8"  coef="-8.77e-2"/><qTerm  idx="-1"  idxOne="7"  idxTwo="9"  coef=".2964"/><qTerm  idx="-1"  idxOne="7"  idxTwo="10"  coef=".3672"/><qTerm  idx="-1"  idxOne="7"  idxTwo="11"  coef="-.6592"/><qTerm  idx="-1"  idxOne="7"  idxTwo="12"  coef="-.4539"/><qTerm  idx="-1"  idxOne="7"  idxTwo="13"  coef="-.1185"/><qTerm  idx="-1"  idxOne="7"  idxTwo="14"  coef="-8.46e-2"/><qTerm  idx="-1"  idxOne="7"  idxTwo="15"  coef="-.2095"/><qTerm  idx="-1"  idxOne="7"  idxTwo="16"  coef=".3767"/><qTerm  idx="-1"  idxOne="7"  idxTwo="17"  coef="-.4022"/><qTerm  idx="-1"  idxOne="7"  idxTwo="18"  coef="-.5895"/><qTerm  idx="-1"  idxOne="7"  idxTwo="19"  coef="-.6154"/><qTerm  idx="-1"  idxOne="8"  idxTwo="8"  coef="-.162"/><qTerm  idx="-1"  idxOne="8"  idxTwo="9"  coef=".3813"/><qTerm  idx="-1"  idxOne="8"  idxTwo="10"  coef="-.7189"/><qTerm  idx="-1"  idxOne="8"  idxTwo="11"  coef="-.7125"/><qTerm  idx="-1"  idxOne="8"  idxTwo="12"  coef=".3249"/><qTerm  idx="-1"  idxOne="8"  idxTwo="13"  coef=".1514"/><qTerm  idx="-1"  idxOne="8"  idxTwo="14"  coef=".5499"/><qTerm  idx="-1"  idxOne="8"  idxTwo="15"  coef=".5506"/><qTerm  idx="-1"  idxOne="8"  idxTwo="16"  coef=".5307"/><qTerm  idx="-1"  idxOne="8"  idxTwo="17"  coef=".753"/><qTerm  idx="-1"  idxOne="8"  idxTwo="18"  coef="-.8016"/><qTerm  idx="-1"  idxOne="8"  idxTwo="19"  coef="-.331"/><qTerm  idx="-1"  idxOne="9"  idxTwo="9"  coef=".2902"/><qTerm  idx="-1"  idxOne="9"  idxTwo="10"  coef="-.7368"/><qTerm  idx="-1"  idxOne="9"  idxTwo="11"  coef=".6151"/><qTerm  idx="-1"  idxOne="9"  idxTwo="12"  coef="8.37e-2"/><qTerm  idx="-1"  idxOne="9"  idxTwo="13"  coef="-.4685"/><qTerm  idx="-1"  idxOne="9"  idxTwo="14"  coef="-8.23e-2"/><qTerm  idx="-1"  idxOne="9"  idxTwo="15"  coef="2.19e-2"/><qTerm  idx="-1"  idxOne="9"  idxTwo="16"  coef="9.7e-3"/><qTerm  idx="-1"  idxOne="9"  idxTwo="17"  coef=".9235"/><qTerm  idx="-1"  idxOne="9"  idxTwo="18"  coef=".1005"/><qTerm  idx="-1"  idxOne="9"  idxTwo="19"  coef="-.6207"/><qTerm  idx="-1"  idxOne="10"  idxTwo="10"  coef="-.5978"/><qTerm  idx="-1"  idxOne="10"  idxTwo="11"  coef="-.5025"/><qTerm  idx="-1"  idxOne="10"  idxTwo="12"  coef=".9402"/><qTerm  idx="-1"  idxOne="10"  idxTwo="13"  coef=".5528"/><qTerm  idx="-1"  idxOne="10"  idxTwo="14"  coef="-.4546"/><qTerm  idx="-1"  idxOne="10"  idxTwo="15"  coef="-6.1e-3"/><qTerm  idx="-1"  idxOne="10"  idxTwo="16"  coef="-.2025"/><qTerm  idx="-1"  idxOne="10"  idxTwo="17"  coef=".2266"/><qTerm  idx="-1"  idxOne="10"  idxTwo="18"  coef="-.8295"/><qTerm  idx="-1"  idxOne="10"  idxTwo="19"  coef=".474"/><qTerm  idx="-1"  idxOne="11"  idxTwo="11"  coef=".7257"/><qTerm  idx="-1"  idxOne="11"  idxTwo="12"  coef="-.3179"/><qTerm  idx="-1"  idxOne="11"  idxTwo="13"  coef=".3889"/><qTerm  idx="-1"  idxOne="11"  idxTwo="14"  coef=".2838"/><qTerm  idx="-1"  idxOne="11"  idxTwo="15"  coef="-.829"/><qTerm  idx="-1"  idxOne="11"  idxTwo="16"  coef=".416"/><qTerm  idx="-1"  idxOne="11"  idxTwo="17"  coef=".1849"/><qTerm  idx="-1"  idxOne="11"  idxTwo="18"  coef="-.5344"/><qTerm  idx="-1"  idxOne="11"  idxTwo="19"  coef="-.8496"/><qTerm  idx="-1"  idxOne="12"  idxTwo="12"  coef="-.3513"/><qTerm  idx="-1"  idxOne="12"  idxTwo="13"  coef=".8262"/><qTerm  idx="-1"  idxOne="12"  idxTwo="14"  coef="-.5914"/><qTerm  idx="-1"  idxOne="12"  idxTwo="15"  coef="-9.45e-2"/><qTerm  idx="-1"  idxOne="12"  idxTwo="16"  coef=".4543"/><qTerm  idx="-1"  idxOne="12"  idxTwo="17"  coef="-.9433"/><qTerm  idx="-1"  idxOne="12"  idxTwo="18"  coef="3.41e-2"/><qTerm  idx="-1"  idxOne="12"  idxTwo="19"  coef=".5353"/><qTerm  idx="-1"  idxOne="13"  idxTwo="13"  coef=".7887"/><qTerm  idx="-1"  idxOne="13"  idxTwo="14"  coef=".889"/><qTerm  idx="-1"  idxOne="13"  idxTwo="15"  coef="-.4204"/><qTerm  idx="-1"  idxOne="13"  idxTwo="16"  coef="6.29e-2"/><qTerm  idx="-1"  idxOne="13"  idxTwo="17"  coef="-.5343"/><qTerm  idx="-1"  idxOne="13"  idxTwo="18"  coef="-.3744"/><qTerm  idx="-1"  idxOne="13"  idxTwo="19"  coef="-.717"/><qTerm  idx="-1"  idxOne="14"  idxTwo="14"  coef="-.3148"/><qTerm  idx="-1"  idxOne="14"  idxTwo="15"  coef="-.6929"/><qTerm  idx="-1"  idxOne="14"  idxTwo="16"  coef=".6984"/><qTerm  idx="-1"  idxOne="14"  idxTwo="17"  coef=".9441"/><qTerm  idx="-1"  idxOne="14"  idxTwo="18"  coef="-.1182"/><qTerm  idx="-1"  idxOne="14"  idxTwo="19"  coef=".5489"/><qTerm  idx="-1"  idxOne="15"  idxTwo="15"  coef="-8.76e-2"/><qTerm  idx="-1"  idxOne="15"  idxTwo="16"  coef=".729"/><qTerm  idx="-1"  idxOne="15"  idxTwo="17"  coef=".456"/><qTerm  idx="-1"  idxOne="15"  idxTwo="18"  coef=".2747"/><qTerm  idx="-1"  idxOne="15"  idxTwo="19"  coef=".4481"/><qTerm  idx="-1"  idxOne="16"  idxTwo="16"  coef=".2084"/><qTerm  idx="-1"  idxOne="16"  idxTwo="17"  coef="-.9474"/><qTerm  idx="-1"  idxOne="16"  idxTwo="18"  coef="-.4145"/><qTerm  idx="-1"  idxOne="16"  idxTwo="19"  coef="-.6056"/><qTerm  idx="-1"  idxOne="17"  idxTwo="17"  coef=".8973"/><qTerm  idx="-1"  idxOne="17"  idxTwo="18"  coef="6.37e-2"/><qTerm  idx="-1"  idxOne="17"  idxTwo="19"  coef="-.9793"/><qTerm  idx="-1"  idxOne="18"  idxTwo="18"  coef="-9.57e-2"/><qTerm  idx="-1"  idxOne="18"  idxTwo="19"  coef=".9272"/><qTerm  idx="-1"  idxOne="19"  idxTwo="19"  coef=".9722"/></quadraticCoefficients></instanceData></osil>
